(set-logic QF_S)
(declare-fun var0 () String)
(assert (str.in.re var0 (re.++ (re.* (re.+ (str.to.re "000"))) (re.++ (re.+ (re.+ (str.to.re "1"))) (re.++ (re.* (re.union (str.to.re "22") (str.to.re "333"))) (re.++ (re.union (re.* (str.to.re "444")) (re.* (str.to.re "555"))) (re.++ (re.union (re.+ (str.to.re "66")) (re.+ (str.to.re "777"))) (re.++ (re.* (re.+ (str.to.re "88"))) (re.++ (re.+ (re.+ (str.to.re "9"))) (re.++ (re.* (re.+ (str.to.re "a"))) (re.++ (re.+ (re.* (str.to.re "b"))) (re.++ (re.union (re.* (str.to.re "ccc")) (re.* (str.to.re "d"))) (re.++ (re.* (re.union (str.to.re "ee") (str.to.re "ff"))) (re.++ (re.* (re.* (str.to.re "gg"))) (re.++ (re.union (re.* (str.to.re "hh")) (re.* (str.to.re "i"))) (re.++ (re.union (re.union (str.to.re "jjj") (str.to.re "kk")) (re.union (str.to.re "ll") (str.to.re "mmm"))) (re.++ (re.* (re.+ (str.to.re "n"))) (re.++ (re.+ (re.union (str.to.re "ooo") (str.to.re "ppp"))) (re.++ (re.+ (re.+ (str.to.re "qq"))) (re.++ (re.union (re.* (str.to.re "r")) (re.* (str.to.re "sss"))) (re.++ (re.union (re.+ (str.to.re "tt")) (re.+ (str.to.re "u"))) (re.++ (re.union (re.+ (str.to.re "v")) (re.+ (str.to.re "www"))) (re.++ (re.+ (re.* (str.to.re "xxx"))) (re.++ (re.union (re.union (str.to.re "yyy") (str.to.re "zzz")) (re.union (str.to.re "A") (str.to.re "B"))) (re.++ (re.* (re.* (str.to.re "CCC"))) (re.++ (re.* (re.union (str.to.re "D") (str.to.re "E"))) (re.++ (re.+ (re.* (str.to.re "F"))) (re.++ (re.* (re.* (str.to.re "GGG"))) (re.++ (re.union (re.* (str.to.re "H")) (re.* (str.to.re "I"))) (re.++ (re.union (re.+ (str.to.re "JJ")) (re.+ (str.to.re "KK"))) (re.++ (re.+ (re.union (str.to.re "L") (str.to.re "M"))) (re.++ (re.+ (re.+ (str.to.re "NN"))) (re.++ (re.+ (re.+ (str.to.re "OO"))) (re.++ (re.+ (re.+ (str.to.re "P"))) (re.++ (re.union (re.* (str.to.re "QQ")) (re.* (str.to.re "RR"))) (re.++ (re.union (re.+ (str.to.re "S")) (re.+ (str.to.re "T"))) (re.++ (re.union (re.* (str.to.re "U")) (re.* (str.to.re "VVV"))) (re.++ (re.+ (re.* (str.to.re "W"))) (re.++ (re.* (re.+ (str.to.re "XXX"))) (re.++ (re.union (re.+ (str.to.re "YYY")) (re.+ (str.to.re "ZZZ"))) (re.++ (re.union (re.* (str.to.re "!")) (re.* (str.to.re """"""))) (re.++ (re.union (re.union (str.to.re "##") (str.to.re "$$")) (re.union (str.to.re "%%") (str.to.re "&&"))) (re.++ (re.union (re.union (str.to.re "'''") (str.to.re "((")) (re.union (str.to.re ")))") (str.to.re "***"))) (re.++ (re.* (re.+ (str.to.re "+"))) (re.++ (re.+ (re.* (str.to.re ","))) (re.++ (re.union (re.* (str.to.re "--")) (re.* (str.to.re ".."))) (re.++ (re.* (re.* (str.to.re "//"))) (re.++ (re.union (re.+ (str.to.re ":")) (re.+ (str.to.re ";;"))) (re.+ (re.union (str.to.re "<<<") (str.to.re "===")))))))))))))))))))))))))))))))))))))))))))))))))))
(check-sat)